certificates/rado_a11_c13_N30.cnf
c Rad2 upper bound instance: x1 + 11*x2 - x3 = 13, interval [1,30]
p cnf 30 118
1 2 10 0
-1 -2 -10 0
1 3 21 0
-1 -3 -21 0
2 11 0
-2 -11 0
2 3 22 0
-2 -3 -22 0
1 3 0
-1 -3 0
2 3 12 0
-2 -3 -12 0
3 23 0
-3 -23 0
1 2 4 0
-1 -2 -4 0
2 4 13 0
-2 -4 -13 0
3 4 24 0
-3 -4 -24 0
1 3 5 0
-1 -3 -5 0
2 5 14 0
-2 -5 -14 0
3 5 25 0
-3 -5 -25 0
1 4 6 0
-1 -4 -6 0
2 6 15 0
-2 -6 -15 0
3 6 26 0
-3 -6 -26 0
1 5 7 0
-1 -5 -7 0
2 7 16 0
-2 -7 -16 0
3 7 27 0
-3 -7 -27 0
1 6 8 0
-1 -6 -8 0
2 8 17 0
-2 -8 -17 0
3 8 28 0
-3 -8 -28 0
1 7 9 0
-1 -7 -9 0
2 9 18 0
-2 -9 -18 0
3 9 29 0
-3 -9 -29 0
1 8 10 0
-1 -8 -10 0
2 10 19 0
-2 -10 -19 0
3 10 30 0
-3 -10 -30 0
1 9 11 0
-1 -9 -11 0
2 11 20 0
-2 -11 -20 0
1 10 12 0
-1 -10 -12 0
2 12 21 0
-2 -12 -21 0
1 11 13 0
-1 -11 -13 0
2 13 22 0
-2 -13 -22 0
1 12 14 0
-1 -12 -14 0
2 14 23 0
-2 -14 -23 0
1 13 15 0
-1 -13 -15 0
2 15 24 0
-2 -15 -24 0
1 14 16 0
-1 -14 -16 0
2 16 25 0
-2 -16 -25 0
1 15 17 0
-1 -15 -17 0
2 17 26 0
-2 -17 -26 0
1 16 18 0
-1 -16 -18 0
2 18 27 0
-2 -18 -27 0
1 17 19 0
-1 -17 -19 0
2 19 28 0
-2 -19 -28 0
1 18 20 0
-1 -18 -20 0
2 20 29 0
-2 -20 -29 0
1 19 21 0
-1 -19 -21 0
2 21 30 0
-2 -21 -30 0
1 20 22 0
-1 -20 -22 0
1 21 23 0
-1 -21 -23 0
1 22 24 0
-1 -22 -24 0
1 23 25 0
-1 -23 -25 0
1 24 26 0
-1 -24 -26 0
1 25 27 0
-1 -25 -27 0
1 26 28 0
-1 -26 -28 0
1 27 29 0
-1 -27 -29 0
1 28 30 0
-1 -28 -30 0
