certificates/rado_a11_c13_N30.drat
-28 -30 0
d -28 -1 -30 0
8 10 28 0
-3 10 0
3 -29 0
-3 -30 0
d -10 -3 -30 0
-30 0
10 0
-3 0
1 0
23 0
-29 0
-12 0
-2 0
-8 0
-25 0
-21 0
9 0
0
